NAME : cgl_48.10604.tour
COMMENT : Length = 10604
COMMENT : Found by LKH-3 [Keld Helsgaun] Fri Nov  8 19:20:30 2024
TYPE : TOUR
DIMENSION : 48
TOUR_SECTION
12
15
14
16
17
18
21
20
19
22
24
23
13
25
26
29
28
27
30
34
33
31
32
35
36
37
39
38
40
41
42
44
43
46
45
47
48
1
3
2
6
5
4
7
9
10
11
8
-1
EOF
